The test POSCAR file cartesian
2.0
        2.17955994605         0.0000000000         0.0000000000
        0.0000000000         2.17955994605         0.0000000000
        0.0000000000         0.0000000000         2.17955994605
   Si    C
    4    4
Cartesian
     3.269339919         1.089779973         3.269339919
     3.269339919         3.269339919         1.089779973
     1.089779973         1.089779973         1.089779973
     1.089779973         3.269339919         3.269339919
     0.000000000         0.000000000         0.000000000
     0.000000000         2.179559946         2.179559946
     2.179559946         0.000000000         2.179559946
     2.179559946         2.179559946         0.000000000
